\ENCODING=ISO-8859-1
\Problem name: IloCplex

Minimize
 obj: 6741.185 x1 + 10356.51 x2 + 7651.86 x3 + 5220.96 x4 + 5777.585 x5
      + 6642.635 x6 + 4375.985 x7 + 3848.56 x8 + 6430.935 x9 + 5397.985 x10
      + 5219.5 x11 + 4184.36 x12 + 7392.71 x13 + 5040.285 x14 + 10351.035 x15
      + 6053.16 x16 + 4.3088621335374e-12 x17 - 9.72651878153946e-12 x18
      + 2.79031919932931e-12 x19 - 3.11961100928395e-12 x20
      - 1.02035020859742e-11 x21 - 7.08156973884052e-12 x22
      + 2.81699823243089e-11 x23 - 5.04844946434808e-12 x24
      + 4.51187386645314e-12 x25 + 8.51593135683747e-12 x26
      - 4.7343258835083e-13 x27 - 4.10753153759263e-12 x28
      + 1.68128137480142e-12 x29 - 8.0687395197226e-12 x30
      - 1.5060825048989e-12 x31 + 1.76215462914436e-12 x32
Subject To
 c1:  x1 + x2 + x3 + x4 + x5 + x6 + x7 + x8 + x9 + x10 + x11 + x12 + x13 + x14
      + x15 + x16  = 1
 c2:  15000 x17 + 15000 x18 + 15000 x19 + 15000 x20 + 15000 x21 + 15000 x22
      + 15000 x23 + 15000 x24 + 15000 x25 + 15000 x26 + 15000 x27 + 15000 x28
      + 15000 x29 + 15000 x30 + 15000 x31 >= 0
 c3:  15000 x17 + 15000 x18 + 15000 x19 + 15000 x20 + 15000 x21 + 15000 x22
      + 15000 x23 + 15000 x24 + 15000 x25 + 15000 x26 + 15000 x27 + 15000 x28
      + 15000 x29 + 15000 x31 + 15000 x32 >= 0
 c4:  15000 x17 + 15000 x18 + 15000 x19 + 15000 x20 + 15000 x21 + 15000 x22
      + 15000 x23 + 15000 x24 + 15000 x25 + 15000 x27 + 15000 x28 + 15000 x29
      + 15000 x30 + 15000 x31 + 15000 x32 >= 0
 c5:  15000 x17 + 15000 x18 + 15000 x20 + 15000 x21 + 15000 x22 + 15000 x23
      + 15000 x24 + 15000 x25 + 15000 x26 + 15000 x27 + 15000 x28 + 15000 x29
      + 15000 x30 + 15000 x31 + 15000 x32 >= 0
 c6:  15000 x17 + 15000 x18 + 15000 x19 + 15000 x20 + 15000 x22 + 15000 x23
      + 15000 x24 + 15000 x25 + 15000 x26 + 15000 x27 + 15000 x28 + 15000 x29
      + 15000 x30 + 15000 x31 + 15000 x32 >= 0
 c7:  15000 x17 + 15000 x18 + 15000 x19 + 15000 x20 + 15000 x21 + 15000 x22
      + 15000 x23 + 15000 x24 + 15000 x26 + 15000 x27 + 15000 x28 + 15000 x29
      + 15000 x30 + 15000 x31 + 15000 x32 >= 0
 c8:  15000 x17 + 15000 x18 + 15000 x19 + 15000 x20 + 15000 x21 + 15000 x22
      + 15000 x24 + 15000 x25 + 15000 x26 + 15000 x27 + 15000 x28 + 15000 x29
      + 15000 x30 + 15000 x31 + 15000 x32 >= 0
 c9:  15000 x18 + 15000 x19 + 15000 x20 + 15000 x21 + 15000 x22 + 15000 x23
      + 15000 x24 + 15000 x25 + 15000 x26 + 15000 x27 + 15000 x28 + 15000 x29
      + 15000 x30 + 15000 x31 + 15000 x32 >= 0
 c10: 15000 x17 + 15000 x18 + 15000 x19 + 15000 x20 + 15000 x21 + 15000 x23
      + 15000 x24 + 15000 x25 + 15000 x26 + 15000 x27 + 15000 x28 + 15000 x29
      + 15000 x30 + 15000 x31 + 15000 x32 >= 0
 c11: 15000 x17 + 15000 x18 + 15000 x19 + 15000 x20 + 15000 x21 + 15000 x22
      + 15000 x23 + 15000 x24 + 15000 x25 + 15000 x26 + 15000 x28 + 15000 x29
      + 15000 x30 + 15000 x31 + 15000 x32 >= 0
 c12: 15000 x17 + 15000 x18 + 15000 x19 + 15000 x21 + 15000 x22 + 15000 x23
      + 15000 x24 + 15000 x25 + 15000 x26 + 15000 x27 + 15000 x28 + 15000 x29
      + 15000 x30 + 15000 x31 + 15000 x32 >= 0
 c13: 15000 x17 + 15000 x19 + 15000 x20 + 15000 x21 + 15000 x22 + 15000 x23
      + 15000 x24 + 15000 x25 + 15000 x26 + 15000 x27 + 15000 x28 + 15000 x29
      + 15000 x30 + 15000 x31 + 15000 x32 >= 0
 c14: 15000 x17 + 15000 x18 + 15000 x19 + 15000 x20 + 15000 x21 + 15000 x22
      + 15000 x23 + 15000 x24 + 15000 x25 + 15000 x26 + 15000 x27 + 15000 x28
      + 15000 x30 + 15000 x31 + 15000 x32 >= 0
 c15: 15000 x17 + 15000 x18 + 15000 x19 + 15000 x20 + 15000 x21 + 15000 x22
      + 15000 x23 + 15000 x25 + 15000 x26 + 15000 x27 + 15000 x28 + 15000 x29
      + 15000 x30 + 15000 x31 + 15000 x32 >= 0
 c16: 15000 x17 + 15000 x18 + 15000 x19 + 15000 x20 + 15000 x21 + 15000 x22
      + 15000 x23 + 15000 x24 + 15000 x25 + 15000 x26 + 15000 x27 + 15000 x28
      + 15000 x29 + 15000 x30 + 15000 x32 >= 0
 c17: 15000 x17 + 15000 x18 + 15000 x19 + 15000 x20 + 15000 x21 + 15000 x22
      + 15000 x23 + 15000 x24 + 15000 x25 + 15000 x26 + 15000 x27 + 15000 x29
      + 15000 x30 + 15000 x31 + 15000 x32 >= 0
Bounds
 0 <= x1 <= 1
 0 <= x2 <= 1
 0 <= x3 <= 1
 0 <= x4 <= 1
 0 <= x5 <= 1
 0 <= x6 <= 1
 0 <= x7 <= 1
 0 <= x8 <= 1
 0 <= x9 <= 1
 0 <= x10 <= 1
 0 <= x11 <= 1
 0 <= x12 <= 1
 0 <= x13 <= 1
 0 <= x14 <= 1
 0 <= x15 <= 1
 0 <= x16 <= 1
 0 <= x17 <= 1
 0 <= x18 <= 1
 0 <= x19 <= 1
 0 <= x20 <= 1
 0 <= x21 <= 1
 0 <= x22 <= 1
 0 <= x23 <= 1
 0 <= x24 <= 1
 0 <= x25 <= 1
 0 <= x26 <= 1
 0 <= x27 <= 1
 0 <= x28 <= 1
 0 <= x29 <= 1
 0 <= x30 <= 1
 0 <= x31 <= 1
 0 <= x32 <= 1
Binaries
 x1  x2  x3  x4  x5  x6  x7  x8  x9  x10  x11  x12  x13  x14  x15  x16  x17 
 x18  x19  x20  x21  x22  x23  x24  x25  x26  x27  x28  x29  x30  x31  x32 
End
